c 3 - XORSAT
p cnf 50 200
3 13 24 0
-3 -13 24 0
-3 13 -24 0
3 -13 -24 0
5 10 20 0
-5 -10 20 0
-5 10 -20 0
5 -10 -20 0
-15 -40 -46 0
-15 40 46 0
15 -40 46 0
15 40 -46 0
15 27 34 0
-15 -27 34 0
-15 27 -34 0
15 -27 -34 0
16 23 26 0
-16 -23 26 0
-16 23 -26 0
16 -23 -26 0
-10 -12 -36 0
-10 12 36 0
10 -12 36 0
10 12 -36 0
-9 -21 -29 0
-9 21 29 0
9 -21 29 0
9 21 -29 0
-4 -11 -12 0
-4 11 12 0
4 -11 12 0
4 11 -12 0
30 31 49 0
-30 -31 49 0
-30 31 -49 0
30 -31 -49 0
8 21 30 0
-8 -21 30 0
-8 21 -30 0
8 -21 -30 0
11 18 19 0
-11 -18 19 0
-11 18 -19 0
11 -18 -19 0
-20 -43 -45 0
-20 43 45 0
20 -43 45 0
20 43 -45 0
41 42 48 0
-41 -42 48 0
-41 42 -48 0
41 -42 -48 0
-22 -44 -46 0
-22 44 46 0
22 -44 46 0
22 44 -46 0
-28 -31 -34 0
-28 31 34 0
28 -31 34 0
28 31 -34 0
-35 -48 -50 0
-35 48 50 0
35 -48 50 0
35 48 -50 0
6 31 40 0
-6 -31 40 0
-6 31 -40 0
6 -31 -40 0
-2 -11 -16 0
-2 11 16 0
2 -11 16 0
2 11 -16 0
-8 -25 -42 0
-8 25 42 0
8 -25 42 0
8 25 -42 0
-2 -17 -33 0
-2 17 33 0
2 -17 33 0
2 17 -33 0
-23 -27 -32 0
-23 27 32 0
23 -27 32 0
23 27 -32 0
-19 -41 -44 0
-19 41 44 0
19 -41 44 0
19 41 -44 0
13 18 25 0
-13 -18 25 0
-13 18 -25 0
13 -18 -25 0
1 3 17 0
-1 -3 17 0
-1 3 -17 0
1 -3 -17 0
1 7 21 0
-1 -7 21 0
-1 7 -21 0
1 -7 -21 0
-6 -14 -20 0
-6 14 20 0
6 -14 20 0
6 14 -20 0
45 49 50 0
-45 -49 50 0
-45 49 -50 0
45 -49 -50 0
5 13 38 0
-5 -13 38 0
-5 13 -38 0
5 -13 -38 0
25 29 35 0
-25 -29 35 0
-25 29 -35 0
25 -29 -35 0
41 43 44 0
-41 -43 44 0
-41 43 -44 0
41 -43 -44 0
16 28 43 0
-16 -28 43 0
-16 28 -43 0
16 -28 -43 0
8 22 29 0
-8 -22 29 0
-8 22 -29 0
8 -22 -29 0
3 14 17 0
-3 -14 17 0
-3 14 -17 0
3 -14 -17 0
4 30 32 0
-4 -30 32 0
-4 30 -32 0
4 -30 -32 0
27 33 47 0
-27 -33 47 0
-27 33 -47 0
27 -33 -47 0
-32 -33 -39 0
-32 33 39 0
32 -33 39 0
32 33 -39 0
38 49 50 0
-38 -49 50 0
-38 49 -50 0
38 -49 -50 0
-6 -10 -23 0
-6 10 23 0
6 -10 23 0
6 10 -23 0
1 7 26 0
-1 -7 26 0
-1 7 -26 0
1 -7 -26 0
-5 -9 -37 0
-5 9 37 0
5 -9 37 0
5 9 -37 0
22 36 39 0
-22 -36 39 0
-22 36 -39 0
22 -36 -39 0
36 37 42 0
-36 -37 42 0
-36 37 -42 0
36 -37 -42 0
26 28 19 0
-26 -28 19 0
-26 28 -19 0
26 -28 -19 0
38 39 47 0
-38 -39 47 0
-38 39 -47 0
38 -39 -47 0
18 47 48 0
-18 -47 48 0
-18 47 -48 0
18 -47 -48 0
-15 -40 -46 0
-15 40 46 0
15 -40 46 0
15 40 -46 0
35 37 45 0
-35 -37 45 0
-35 37 -45 0
35 -37 -45 0
-2 -7 -34 0
-2 7 34 0
2 -7 34 0
2 7 -34 0
-9 -14 -24 0
-9 14 24 0
9 -14 24 0
9 14 -24 0
-4 -12 -24 0
-4 12 24 0
4 -12 24 0
4 12 -24 0
